(set-logic QF_UF)
(declare-fun A0 () Bool)
(declare-fun A1 () Bool)
(declare-fun A2 () Bool)
(declare-fun A3 () Bool)
(declare-fun A4 () Bool)
(declare-fun A5 () Bool)
(declare-fun A6 () Bool)
(declare-fun A7 () Bool)
(declare-fun A8 () Bool)
(declare-fun A9 () Bool)
(declare-fun A10 () Bool)
(declare-fun A11 () Bool)
(declare-fun A12 () Bool)
(declare-fun A13 () Bool)
(declare-fun A14 () Bool)
(declare-fun A15 () Bool)
(declare-fun A16 () Bool)
(declare-fun A17 () Bool)
(declare-fun A18 () Bool)
(declare-fun A19 () Bool)
(declare-fun A20 () Bool)
(declare-fun A21 () Bool)
(declare-fun A22 () Bool)
(declare-fun A23 () Bool)
(declare-fun A24 () Bool)
(assert (let ((.def_0 (not A21))) (let ((.def_1 (not A13))) (let ((.def_2 (and .def_1 .def_0))) (let ((.def_3 (= A17 A2))) (let ((.def_4 (or .def_3 .def_2))) (let ((.def_5 (not A19))) (let ((.def_6 (and .def_5 A13))) (let ((.def_7 (not .def_6))) (let ((.def_8 (or A6 A6))) (let ((.def_9 (not .def_8))) (let ((.def_10 (and .def_9 .def_7))) (let ((.def_11 (not .def_10))) (let ((.def_12 (= .def_11 .def_4))) (let ((.def_13 (not A1))) (let ((.def_14 (and .def_13 A5))) (let ((.def_15 (not .def_14))) (let ((.def_16 (not A17))) (let ((.def_17 (and A20 .def_16))) (let ((.def_18 (not .def_17))) (let ((.def_19 (and .def_18 .def_15))) (let ((.def_20 (not A3))) (let ((.def_21 (and A8 .def_20))) (let ((.def_22 (or A16 A24))) (let ((.def_23 (not .def_22))) (let ((.def_24 (and .def_23 .def_21))) (let ((.def_25 (or .def_24 .def_19))) (let ((.def_26 (or .def_25 .def_12))) (let ((.def_27 (or A20 A11))) (let ((.def_28 (not .def_27))) (let ((.def_29 (and A2 A8))) (let ((.def_30 (and .def_29 .def_28))) (let ((.def_31 (not .def_30))) (let ((.def_32 (and A7 A4))) (let ((.def_33 (not .def_32))) (let ((.def_34 (not A4))) (let ((.def_35 (and A3 .def_34))) (let ((.def_36 (not .def_35))) (let ((.def_37 (and .def_36 .def_33))) (let ((.def_38 (not .def_37))) (let ((.def_39 (or .def_38 .def_31))) (let ((.def_40 (and A2 A0))) (let ((.def_41 (not .def_40))) (let ((.def_42 (not A0))) (let ((.def_43 (not A20))) (let ((.def_44 (or .def_43 .def_42))) (let ((.def_45 (not .def_44))) (let ((.def_46 (and .def_45 .def_41))) (let ((.def_47 (not .def_46))) (let ((.def_48 (not A18))) (let ((.def_49 (or A4 .def_48))) (let ((.def_50 (not .def_49))) (let ((.def_51 (or A16 A2))) (let ((.def_52 (not .def_51))) (let ((.def_53 (= .def_52 .def_50))) (let ((.def_54 (not .def_53))) (let ((.def_55 (or .def_54 .def_47))) (let ((.def_56 (or .def_55 .def_39))) (let ((.def_57 (= .def_56 .def_26))) (let ((.def_58 (not .def_57))) (let ((.def_59 (and A10 A24))) (let ((.def_60 (not .def_59))) (let ((.def_61 (not A7))) (let ((.def_62 (and .def_20 .def_61))) (let ((.def_63 (not .def_62))) (let ((.def_64 (= .def_63 .def_60))) (let ((.def_65 (and A7 A15))) (let ((.def_66 (not A11))) (let ((.def_67 (or .def_66 A7))) (let ((.def_68 (not .def_67))) (let ((.def_69 (or .def_68 .def_65))) (let ((.def_70 (not .def_69))) (let ((.def_71 (and .def_70 .def_64))) (let ((.def_72 (not A9))) (let ((.def_73 (and A16 .def_72))) (let ((.def_74 (and A19 .def_20))) (let ((.def_75 (and .def_74 .def_73))) (let ((.def_76 (and A17 A2))) (let ((.def_77 (not .def_76))) (let ((.def_78 (not A6))) (let ((.def_79 (or A12 .def_78))) (let ((.def_80 (and .def_79 .def_77))) (let ((.def_81 (or .def_80 .def_75))) (let ((.def_82 (= .def_81 .def_71))) (let ((.def_83 (not .def_82))) (let ((.def_84 (not A22))) (let ((.def_85 (and .def_84 A3))) (let ((.def_86 (not .def_85))) (let ((.def_87 (or A9 A19))) (let ((.def_88 (not .def_87))) (let ((.def_89 (and .def_88 .def_86))) (let ((.def_90 (not .def_89))) (let ((.def_91 (and A20 A2))) (let ((.def_92 (not .def_91))) (let ((.def_93 (not A8))) (let ((.def_94 (not A16))) (let ((.def_95 (= .def_94 .def_93))) (let ((.def_96 (not .def_95))) (let ((.def_97 (or .def_96 .def_92))) (let ((.def_98 (not .def_97))) (let ((.def_99 (and .def_98 .def_90))) (let ((.def_100 (not .def_99))) (let ((.def_101 (and .def_84 A8))) (let ((.def_102 (or .def_43 A23))) (let ((.def_103 (not .def_102))) (let ((.def_104 (or .def_103 .def_101))) (let ((.def_105 (= A4 .def_34))) (let ((.def_106 (or A23 A16))) (let ((.def_107 (not .def_106))) (let ((.def_108 (and .def_107 .def_105))) (let ((.def_109 (and .def_108 .def_104))) (let ((.def_110 (not .def_109))) (let ((.def_111 (or .def_110 .def_100))) (let ((.def_112 (and .def_111 .def_83))) (let ((.def_113 (or .def_112 .def_58))) (let ((.def_114 (not .def_113))) (let ((.def_115 (and A8 .def_72))) (let ((.def_116 (not .def_115))) (let ((.def_117 (and .def_42 A17))) (let ((.def_118 (not .def_117))) (let ((.def_119 (or .def_118 .def_116))) (let ((.def_120 (not A23))) (let ((.def_121 (and .def_84 .def_120))) (let ((.def_122 (and .def_94 .def_34))) (let ((.def_123 (not .def_122))) (let ((.def_124 (and .def_123 .def_121))) (let ((.def_125 (not .def_124))) (let ((.def_126 (and .def_125 .def_119))) (let ((.def_127 (not .def_126))) (let ((.def_128 (= .def_5 .def_48))) (let ((.def_129 (not .def_128))) (let ((.def_130 (= A20 .def_66))) (let ((.def_131 (or .def_130 .def_129))) (let ((.def_132 (not .def_131))) (let ((.def_133 (or A24 A8))) (let ((.def_134 (and A22 .def_84))) (let ((.def_135 (not .def_134))) (let ((.def_136 (or .def_135 .def_133))) (let ((.def_137 (or .def_136 .def_132))) (let ((.def_138 (and .def_137 .def_127))) (let ((.def_139 (not .def_138))) (let ((.def_140 (or A13 .def_48))) (let ((.def_141 (= A23 A2))) (let ((.def_142 (and .def_141 .def_140))) (let ((.def_143 (= .def_34 A5))) (let ((.def_144 (not .def_143))) (let ((.def_145 (and .def_1 .def_66))) (let ((.def_146 (or .def_145 .def_144))) (let ((.def_147 (not .def_146))) (let ((.def_148 (and .def_147 .def_142))) (let ((.def_149 (and A16 A16))) (let ((.def_150 (or .def_66 A3))) (let ((.def_151 (not .def_150))) (let ((.def_152 (and .def_151 .def_149))) (let ((.def_153 (not .def_152))) (let ((.def_154 (not A14))) (let ((.def_155 (or .def_1 .def_154))) (let ((.def_156 (and .def_1 .def_84))) (let ((.def_157 (not .def_156))) (let ((.def_158 (or .def_157 .def_155))) (let ((.def_159 (not .def_158))) (let ((.def_160 (and .def_159 .def_153))) (let ((.def_161 (and .def_160 .def_148))) (let ((.def_162 (and .def_161 .def_139))) (let ((.def_163 (not .def_162))) (let ((.def_164 (or .def_20 .def_154))) (let ((.def_165 (not .def_164))) (let ((.def_166 (or A9 A3))) (let ((.def_167 (not .def_166))) (let ((.def_168 (and .def_167 .def_165))) (let ((.def_169 (not .def_168))) (let ((.def_170 (not A5))) (let ((.def_171 (or .def_20 .def_170))) (let ((.def_172 (not .def_171))) (let ((.def_173 (and .def_43 .def_0))) (let ((.def_174 (not .def_173))) (let ((.def_175 (or .def_174 .def_172))) (let ((.def_176 (not .def_175))) (let ((.def_177 (and .def_176 .def_169))) (let ((.def_178 (and A9 .def_43))) (let ((.def_179 (not .def_178))) (let ((.def_180 (and A13 A24))) (let ((.def_181 (or .def_180 .def_179))) (let ((.def_182 (not .def_181))) (let ((.def_183 (and .def_120 .def_20))) (let ((.def_184 (and .def_16 A11))) (let ((.def_185 (and .def_184 .def_183))) (let ((.def_186 (not .def_185))) (let ((.def_187 (and .def_186 .def_182))) (let ((.def_188 (and .def_187 .def_177))) (let ((.def_189 (not .def_188))) (let ((.def_190 (or A12 A0))) (let ((.def_191 (or A14 A6))) (let ((.def_192 (not .def_191))) (let ((.def_193 (or .def_192 .def_190))) (let ((.def_194 (and A5 A19))) (let ((.def_195 (not A10))) (let ((.def_196 (or A16 .def_195))) (let ((.def_197 (and .def_196 .def_194))) (let ((.def_198 (not .def_197))) (let ((.def_199 (or .def_198 .def_193))) (let ((.def_200 (= A24 A14))) (let ((.def_201 (and A10 .def_154))) (let ((.def_202 (not .def_201))) (let ((.def_203 (or .def_202 .def_200))) (let ((.def_204 (not .def_203))) (let ((.def_205 (not A2))) (let ((.def_206 (= .def_13 .def_205))) (let ((.def_207 (not .def_206))) (let ((.def_208 (or A0 A22))) (let ((.def_209 (not .def_208))) (let ((.def_210 (and .def_209 .def_207))) (let ((.def_211 (= .def_210 .def_204))) (let ((.def_212 (not .def_211))) (let ((.def_213 (= .def_212 .def_199))) (let ((.def_214 (and .def_213 .def_189))) (let ((.def_215 (and .def_214 .def_163))) (let ((.def_216 (not .def_215))) (let ((.def_217 (and .def_216 .def_114))) (let ((.def_218 (not .def_217))) (let ((.def_219 (or .def_84 A19))) (let ((.def_220 (= A20 .def_120))) (let ((.def_221 (or .def_220 .def_219))) (let ((.def_222 (not .def_221))) (let ((.def_223 (and A0 A21))) (let ((.def_224 (or A10 A14))) (let ((.def_225 (and .def_224 .def_223))) (let ((.def_226 (and .def_225 .def_222))) (let ((.def_227 (not A15))) (let ((.def_228 (and .def_227 A23))) (let ((.def_229 (not .def_228))) (let ((.def_230 (and A24 A13))) (let ((.def_231 (and .def_230 .def_229))) (let ((.def_232 (not .def_231))) (let ((.def_233 (or A13 A1))) (let ((.def_234 (not .def_233))) (let ((.def_235 (or A16 .def_1))) (let ((.def_236 (not .def_235))) (let ((.def_237 (or .def_236 .def_234))) (let ((.def_238 (and .def_237 .def_232))) (let ((.def_239 (or .def_238 .def_226))) (let ((.def_240 (not .def_239))) (let ((.def_241 (not A12))) (let ((.def_242 (or .def_48 .def_241))) (let ((.def_243 (not .def_242))) (let ((.def_244 (or .def_5 A18))) (let ((.def_245 (not .def_244))) (let ((.def_246 (or .def_245 .def_243))) (let ((.def_247 (not .def_246))) (let ((.def_248 (and A20 A23))) (let ((.def_249 (= .def_0 .def_20))) (let ((.def_250 (and .def_249 .def_248))) (let ((.def_251 (and .def_250 .def_247))) (let ((.def_252 (not .def_251))) (let ((.def_253 (not A24))) (let ((.def_254 (and .def_253 .def_61))) (let ((.def_255 (and .def_78 A0))) (let ((.def_256 (not .def_255))) (let ((.def_257 (or .def_256 .def_254))) (let ((.def_258 (not .def_257))) (let ((.def_259 (and .def_61 A15))) (let ((.def_260 (not .def_259))) (let ((.def_261 (and A0 .def_20))) (let ((.def_262 (and .def_261 .def_260))) (let ((.def_263 (not .def_262))) (let ((.def_264 (and .def_263 .def_258))) (let ((.def_265 (not .def_264))) (let ((.def_266 (and .def_265 .def_252))) (let ((.def_267 (or .def_266 .def_240))) (let ((.def_268 (not .def_267))) (let ((.def_269 (and A23 A12))) (let ((.def_270 (and A6 A15))) (let ((.def_271 (and .def_270 .def_269))) (let ((.def_272 (not .def_271))) (let ((.def_273 (= .def_94 .def_241))) (let ((.def_274 (and .def_1 A10))) (let ((.def_275 (and .def_274 .def_273))) (let ((.def_276 (not .def_275))) (let ((.def_277 (and .def_276 .def_272))) (let ((.def_278 (not .def_277))) (let ((.def_279 (and .def_1 A12))) (let ((.def_280 (and A12 .def_227))) (let ((.def_281 (not .def_280))) (let ((.def_282 (or .def_281 .def_279))) (let ((.def_283 (or .def_94 .def_170))) (let ((.def_284 (not .def_283))) (let ((.def_285 (or .def_253 .def_16))) (let ((.def_286 (and .def_285 .def_284))) (let ((.def_287 (not .def_286))) (let ((.def_288 (or .def_287 .def_282))) (let ((.def_289 (or .def_288 .def_278))) (let ((.def_290 (not .def_289))) (let ((.def_291 (or .def_78 .def_170))) (let ((.def_292 (= A18 .def_93))) (let ((.def_293 (and .def_292 .def_291))) (let ((.def_294 (not .def_293))) (let ((.def_295 (or A12 A3))) (let ((.def_296 (not .def_295))) (let ((.def_297 (and A17 .def_195))) (let ((.def_298 (not .def_297))) (let ((.def_299 (and .def_298 .def_296))) (let ((.def_300 (and .def_299 .def_294))) (let ((.def_301 (or .def_20 A21))) (let ((.def_302 (and A0 A13))) (let ((.def_303 (not .def_302))) (let ((.def_304 (or .def_303 .def_301))) (let ((.def_305 (and .def_13 .def_1))) (let ((.def_306 (not .def_305))) (let ((.def_307 (or A20 A18))) (let ((.def_308 (not .def_307))) (let ((.def_309 (and .def_308 .def_306))) (let ((.def_310 (and .def_309 .def_304))) (let ((.def_311 (not .def_310))) (let ((.def_312 (or .def_311 .def_300))) (let ((.def_313 (not .def_312))) (let ((.def_314 (or .def_313 .def_290))) (let ((.def_315 (and .def_314 .def_268))) (let ((.def_316 (not .def_315))) (let ((.def_317 (or .def_84 A10))) (let ((.def_318 (and A20 .def_170))) (let ((.def_319 (and .def_318 .def_317))) (let ((.def_320 (or A2 A12))) (let ((.def_321 (not .def_320))) (let ((.def_322 (and .def_61 A24))) (let ((.def_323 (not .def_322))) (let ((.def_324 (or .def_323 .def_321))) (let ((.def_325 (or .def_324 .def_319))) (let ((.def_326 (not .def_325))) (let ((.def_327 (or A19 .def_42))) (let ((.def_328 (not .def_327))) (let ((.def_329 (or .def_1 A14))) (let ((.def_330 (not .def_329))) (let ((.def_331 (or .def_330 .def_328))) (let ((.def_332 (or .def_16 A5))) (let ((.def_333 (not .def_332))) (let ((.def_334 (and A20 .def_48))) (let ((.def_335 (not .def_334))) (let ((.def_336 (or .def_335 .def_333))) (let ((.def_337 (and .def_336 .def_331))) (let ((.def_338 (not .def_337))) (let ((.def_339 (or .def_338 .def_326))) (let ((.def_340 (or .def_61 A20))) (let ((.def_341 (and .def_48 A22))) (let ((.def_342 (or .def_341 .def_340))) (let ((.def_343 (and A21 A15))) (let ((.def_344 (and A8 A21))) (let ((.def_345 (or .def_344 .def_343))) (let ((.def_346 (or .def_345 .def_342))) (let ((.def_347 (not .def_346))) (let ((.def_348 (or .def_61 A3))) (let ((.def_349 (or A22 .def_94))) (let ((.def_350 (and .def_349 .def_348))) (let ((.def_351 (or A7 .def_0))) (let ((.def_352 (not .def_351))) (let ((.def_353 (or .def_0 A7))) (let ((.def_354 (or .def_353 .def_352))) (let ((.def_355 (not .def_354))) (let ((.def_356 (and .def_355 .def_350))) (let ((.def_357 (and .def_356 .def_347))) (let ((.def_358 (not .def_357))) (let ((.def_359 (and .def_358 .def_339))) (let ((.def_360 (not .def_359))) (let ((.def_361 (or .def_5 .def_1))) (let ((.def_362 (not .def_361))) (let ((.def_363 (or .def_72 A13))) (let ((.def_364 (not .def_363))) (let ((.def_365 (= .def_364 .def_362))) (let ((.def_366 (not .def_365))) (let ((.def_367 (or .def_227 A13))) (let ((.def_368 (not .def_367))) (let ((.def_369 (and .def_0 A8))) (let ((.def_370 (or .def_369 .def_368))) (let ((.def_371 (not .def_370))) (let ((.def_372 (or .def_371 .def_366))) (let ((.def_373 (not .def_372))) (let ((.def_374 (or A3 A20))) (let ((.def_375 (not .def_374))) (let ((.def_376 (or .def_84 A1))) (let ((.def_377 (not .def_376))) (let ((.def_378 (and .def_377 .def_375))) (let ((.def_379 (and .def_5 .def_20))) (let ((.def_380 (and .def_120 A10))) (let ((.def_381 (not .def_380))) (let ((.def_382 (or .def_381 .def_379))) (let ((.def_383 (not .def_382))) (let ((.def_384 (or .def_383 .def_378))) (let ((.def_385 (not .def_384))) (let ((.def_386 (or .def_385 .def_373))) (let ((.def_387 (and A23 .def_42))) (let ((.def_388 (not .def_387))) (let ((.def_389 (= .def_94 A16))) (let ((.def_390 (not .def_389))) (let ((.def_391 (and .def_390 .def_388))) (let ((.def_392 (and .def_20 .def_84))) (let ((.def_393 (not .def_392))) (let ((.def_394 (and .def_42 .def_93))) (let ((.def_395 (not .def_394))) (let ((.def_396 (and .def_395 .def_393))) (let ((.def_397 (and .def_396 .def_391))) (let ((.def_398 (not .def_397))) (let ((.def_399 (or .def_205 A8))) (let ((.def_400 (not .def_399))) (let ((.def_401 (and .def_66 A2))) (let ((.def_402 (or .def_401 .def_400))) (let ((.def_403 (or A17 A22))) (let ((.def_404 (and .def_66 .def_20))) (let ((.def_405 (and .def_404 .def_403))) (let ((.def_406 (not .def_405))) (let ((.def_407 (and .def_406 .def_402))) (let ((.def_408 (not .def_407))) (let ((.def_409 (and .def_408 .def_398))) (let ((.def_410 (not .def_409))) (let ((.def_411 (and .def_410 .def_386))) (let ((.def_412 (or .def_411 .def_360))) (let ((.def_413 (not .def_412))) (let ((.def_414 (and .def_413 .def_316))) (let ((.def_415 (= .def_414 .def_218))) (let ((.def_416 (not .def_415))) .def_416))))))))))))))))))))))))))))))))))))))))))))))))))))))))))))))))))))))))))))))))))))))))))))))))))))))))))))))))))))))))))))))))))))))))))))))))))))))))))))))))))))))))))))))))))))))))))))))))))))))))))))))))))))))))))))))))))))))))))))))))))))))))))))))))))))))))))))))))))))))))))))))))))))))))))))))))))))))))))))))))))))))))))))))))))))))))))))))))))))))))))))))))))))))))))))))))))))))))))))))))))))))))))))))))))
(check-sat)
